
n_res = 8;
rcap = [88, 80, 82, 79, 762, 805, 718, 890];
rtype = [1, 1, 1, 1, 2, 2, 2, 2];
n_tasks = 50;
modes =  [{1, 2, 3, 4, 5, 6, 7, 8, 9}, {10, 11, 12, 13, 14, 15, 16, 17, 18}, {19, 20, 21, 22, 23, 24, 25, 26, 27}, {28, 29, 30, 31, 32, 33, 34, 35, 36}, {37, 38, 39, 40, 41, 42, 43, 44, 45}, {46, 47, 48, 49, 50, 51, 52, 53, 54}, {55, 56, 57, 58, 59, 60, 61, 62, 63}, {64, 65, 66, 67, 68, 69, 70, 71, 72}, {73, 74, 75, 76, 77, 78, 79, 80, 81}, {82, 83, 84, 85, 86, 87, 88, 89, 90}, {91, 92, 93, 94, 95, 96, 97, 98, 99}, {100, 101, 102, 103, 104, 105, 106, 107, 108}, {109, 110, 111, 112, 113, 114, 115, 116, 117}, {118, 119, 120, 121, 122, 123, 124, 125, 126}, {127, 128, 129, 130, 131, 132, 133, 134, 135}, {136, 137, 138, 139, 140, 141, 142, 143, 144}, {145, 146, 147, 148, 149, 150, 151, 152, 153}, {154, 155, 156, 157, 158, 159, 160, 161, 162}, {163, 164, 165, 166, 167, 168, 169, 170, 171}, {172, 173, 174, 175, 176, 177, 178, 179, 180}, {181, 182, 183, 184, 185, 186, 187, 188, 189}, {190, 191, 192, 193, 194, 195, 196, 197, 198}, {199, 200, 201, 202, 203, 204, 205, 206, 207}, {208, 209, 210, 211, 212, 213, 214, 215, 216}, {217, 218, 219, 220, 221, 222, 223, 224, 225}, {226, 227, 228, 229, 230, 231, 232, 233, 234}, {235, 236, 237, 238, 239, 240, 241, 242, 243}, {244, 245, 246, 247, 248, 249, 250, 251, 252}, {253, 254, 255, 256, 257, 258, 259, 260, 261}, {262, 263, 264, 265, 266, 267, 268, 269, 270}, {271, 272, 273, 274, 275, 276, 277, 278, 279}, {280, 281, 282, 283, 284, 285, 286, 287, 288}, {289, 290, 291, 292, 293, 294, 295, 296, 297}, {298, 299, 300, 301, 302, 303, 304, 305, 306}, {307, 308, 309, 310, 311, 312, 313, 314, 315}, {316, 317, 318, 319, 320, 321, 322, 323, 324}, {325, 326, 327, 328, 329, 330, 331, 332, 333}, {334, 335, 336, 337, 338, 339, 340, 341, 342}, {343, 344, 345, 346, 347, 348, 349, 350, 351}, {352, 353, 354, 355, 356, 357, 358, 359, 360}, {361, 362, 363, 364, 365, 366, 367, 368, 369}, {370, 371, 372, 373, 374, 375, 376, 377, 378}, {379, 380, 381, 382, 383, 384, 385, 386, 387}, {388, 389, 390, 391, 392, 393, 394, 395, 396}, {397, 398, 399, 400, 401, 402, 403, 404, 405}, {406, 407, 408, 409, 410, 411, 412, 413, 414}, {415, 416, 417, 418, 419, 420, 421, 422, 423}, {424, 425, 426, 427, 428, 429, 430, 431, 432}, {433, 434, 435, 436, 437, 438, 439, 440, 441}, {442, 443, 444, 445, 446, 447, 448, 449, 450}];
succ =  [{50, 49, 45, 44, 28, 27, 18, 14, 11}, {49, 48, 47, 45, 44, 43, 41, 32, 28, 26, 25, 22, 19, 17, 15}, {50, 43, 42, 41, 26, 23, 18, 14, 13}, {50, 49, 48, 41, 31, 27, 25, 23, 22, 17, 16}, {50, 47, 46, 42, 41, 32, 30, 27, 13}, {47, 44, 32, 31, 29, 23, 12}, {43, 42, 41, 27, 26, 25, 22, 19, 18}, {45, 43, 42, 41, 37, 32, 28, 22, 17}, {45, 44, 40, 39, 34, 33, 31, 25, 24}, {49, 43, 42, 40, 39, 38, 34, 31, 26, 25}, {48, 43, 42, 41, 26, 19}, {43, 41, 25, 22, 17}, {45, 44, 25, 19}, {48, 47, 39, 37, 36, 35, 34, 33}, {42, 39, 38, 35, 34, 33, 31}, {46, 43, 38, 37, 35, 34}, {40, 39, 36, 35, 33}, {46, 40, 38, 35, 33}, {40, 34, 33, 31}, {41, 34, 33, 31}, {45, 34, 26}, {39, 38, 36}, {39, 34, 33}, {42, 41, 38}, {36, 35}, {35, 33}, {36, 33}, {36, 34}, {39, 36}, {44, 38}, {37}, {34}, {}, {}, {}, {}, {}, {}, {}, {}, {}, {}, {}, {}, {}, {}, {}, {}, {}, {}];
n_opt = 450;
dur = [5, 11, 15, 16, 17, 20, 21, 23, 29, 2, 3, 4, 7, 10, 11, 15, 16, 29, 8, 10, 11, 13, 19, 22, 26, 27, 30, 1, 5, 9, 18, 19, 20, 21, 28, 29, 6, 9, 12, 13, 21, 22, 25, 28, 29, 8, 9, 16, 20, 22, 23, 25, 27, 28, 3, 6, 7, 8, 12, 13, 17, 23, 30, 2, 9, 12, 14, 15, 16, 17, 19, 28, 1, 3, 4, 5, 16, 17, 19, 24, 26, 1, 5, 12, 13, 17, 18, 26, 28, 29, 5, 6, 9, 13, 14, 16, 18, 22, 23, 1, 6, 21, 22, 26, 27, 28, 29, 30, 4, 5, 6, 8, 10, 11, 20, 22, 29, 3, 7, 17, 18, 19, 20, 21, 22, 25, 4, 12, 13, 14, 17, 18, 24, 26, 28, 8, 9, 10, 12, 15, 23, 25, 27, 30, 4, 8, 10, 11, 12, 16, 17, 22, 28, 8, 10, 12, 13, 15, 16, 17, 23, 24, 1, 4, 6, 8, 11, 12, 15, 17, 28, 5, 6, 7, 8, 9, 13, 14, 17, 27, 5, 6, 11, 12, 18, 24, 25, 26, 29, 1, 4, 8, 9, 10, 13, 15, 16, 27, 2, 6, 8, 10, 11, 12, 14, 17, 18, 1, 2, 9, 13, 14, 16, 23, 25, 28, 2, 8, 10, 11, 16, 18, 21, 24, 30, 1, 2, 4, 15, 16, 17, 21, 22, 24, 6, 7, 12, 14, 22, 23, 24, 25, 30, 6, 9, 13, 14, 15, 17, 20, 21, 27, 2, 9, 10, 17, 18, 21, 22, 23, 24, 2, 7, 14, 15, 21, 22, 28, 29, 30, 9, 11, 13, 15, 22, 24, 25, 27, 30, 1, 3, 4, 5, 10, 17, 24, 27, 30, 2, 8, 10, 11, 15, 17, 21, 22, 26, 1, 5, 7, 8, 9, 13, 14, 16, 22, 1, 2, 3, 12, 14, 15, 19, 29, 30, 1, 4, 15, 17, 18, 19, 22, 23, 25, 1, 2, 7, 9, 14, 20, 22, 23, 24, 4, 5, 9, 10, 14, 17, 18, 23, 24, 5, 7, 11, 12, 15, 16, 19, 21, 27, 2, 5, 8, 13, 16, 20, 21, 26, 30, 9, 10, 13, 15, 16, 18, 20, 27, 29, 1, 3, 13, 14, 15, 16, 17, 19, 20, 1, 2, 3, 4, 17, 18, 21, 29, 30, 2, 3, 7, 10, 13, 15, 19, 27, 28, 8, 9, 13, 14, 15, 16, 19, 23, 26, 1, 13, 14, 19, 21, 24, 25, 27, 29, 1, 2, 5, 8, 11, 15, 18, 27, 29, 3, 4, 5, 12, 16, 19, 20, 22, 24, 2, 5, 6, 7, 10, 23, 24, 27, 28, 1, 6, 7, 8, 9, 10, 16, 19, 22];
rreq = [|13, 12, 12, 12, 12, 12, 12, 12, 12, 16, 16, 15, 15, 14, 14, 13, 13, 13, 30, 28, 24, 24, 22, 20, 17, 14, 13, 30, 29, 29, 29, 29, 29, 29, 29, 29, 26, 26, 26, 26, 25, 25, 25, 24, 24, 24, 21, 21, 19, 18, 17, 16, 16, 15, 20, 16, 15, 14, 13, 10, 10, 8, 5, 7, 6, 6, 5, 5, 5, 5, 4, 4, 27, 26, 25, 25, 25, 24, 24, 23, 23, 21, 18, 17, 13, 11, 9, 8, 7, 3, 26, 26, 22, 18, 17, 15, 11, 9, 6, 13, 12, 11, 8, 7, 5, 5, 3, 1, 11, 10, 9, 9, 9, 8, 7, 7, 7, 16, 15, 15, 15, 15, 15, 15, 15, 15, 19, 17, 16, 13, 13, 11, 9, 8, 7, 25, 24, 24, 23, 23, 23, 22, 22, 22, 20, 19, 19, 19, 19, 19, 19, 19, 19, 16, 15, 15, 14, 14, 14, 13, 13, 13, 19, 18, 17, 16, 15, 15, 14, 13, 12, 25, 23, 20, 18, 16, 12, 10, 8, 5, 23, 21, 20, 20, 18, 18, 17, 16, 14, 27, 25, 25, 21, 20, 18, 16, 13, 10, 21, 18, 17, 15, 13, 10, 9, 6, 4, 26, 23, 23, 19, 17, 15, 13, 10, 9, 25, 22, 19, 16, 13, 12, 10, 8, 5, 24, 23, 22, 20, 20, 19, 18, 16, 15, 17, 16, 15, 14, 13, 13, 12, 10, 9, 20, 17, 15, 14, 13, 9, 6, 6, 2, 24, 23, 23, 23, 23, 22, 22, 22, 22, 19, 18, 16, 14, 10, 10, 6, 4, 4, 27, 24, 23, 22, 22, 21, 20, 18, 18, 17, 16, 15, 13, 13, 11, 9, 9, 7, 17, 15, 11, 11, 9, 8, 5, 3, 2, 18, 18, 18, 18, 18, 17, 17, 17, 17, 13, 13, 12, 10, 9, 8, 7, 6, 5, 23, 23, 23, 22, 22, 22, 21, 21, 21, 28, 24, 21, 20, 17, 15, 10, 7, 7, 25, 25, 24, 22, 20, 19, 17, 17, 16, 15, 13, 13, 11, 9, 6, 5, 4, 2, 20, 20, 18, 17, 16, 15, 14, 14, 12, 23, 21, 19, 17, 16, 15, 14, 13, 11, 11, 10, 10, 9, 8, 8, 7, 7, 7, 13, 11, 10, 9, 9, 8, 8, 6, 6, 21, 19, 19, 18, 15, 15, 13, 12, 11, 24, 24, 19, 17, 16, 13, 9, 8, 5, 16, 16, 16, 15, 14, 14, 13, 13, 13, 26, 25, 25, 25, 25, 24, 24, 24, 24, 10, 10, 10, 10, 9, 9, 9, 9, 9, 13, 13, 13, 13, 13, 12, 12, 12, 12, 23, 23, 21, 20, 19, 19, 17, 17, 16
 |21, 21, 21, 21, 21, 21, 21, 21, 21, 19, 17, 17, 16, 15, 15, 14, 13, 13, 22, 22, 22, 22, 22, 22, 22, 22, 22, 8, 7, 7, 7, 6, 6, 6, 6, 6, 27, 24, 19, 18, 13, 12, 8, 6, 4, 18, 16, 13, 11, 9, 9, 7, 5, 2, 14, 14, 13, 13, 12, 12, 11, 10, 10, 21, 19, 16, 13, 12, 10, 6, 6, 2, 6, 5, 5, 4, 4, 3, 3, 1, 1, 15, 14, 14, 14, 13, 13, 12, 12, 12, 30, 30, 30, 30, 30, 30, 30, 30, 30, 29, 27, 27, 25, 25, 24, 22, 22, 21, 25, 21, 20, 17, 15, 13, 12, 9, 9, 24, 20, 20, 17, 17, 15, 14, 11, 10, 13, 13, 13, 13, 13, 13, 13, 13, 13, 17, 15, 15, 13, 13, 13, 12, 10, 10, 23, 23, 23, 23, 23, 22, 22, 22, 22, 11, 10, 9, 9, 8, 7, 7, 5, 5, 19, 17, 17, 17, 16, 16, 15, 15, 14, 26, 25, 23, 22, 21, 19, 19, 16, 15, 21, 21, 18, 17, 16, 13, 12, 9, 9, 18, 17, 16, 16, 15, 15, 15, 14, 14, 23, 21, 21, 20, 19, 17, 15, 14, 14, 27, 25, 23, 20, 19, 17, 13, 11, 11, 27, 25, 22, 21, 19, 17, 15, 12, 9, 14, 13, 12, 11, 9, 8, 8, 6, 5, 28, 27, 26, 25, 25, 25, 24, 24, 23, 19, 18, 17, 17, 17, 16, 15, 15, 15, 17, 15, 13, 13, 10, 10, 9, 6, 5, 17, 17, 15, 12, 9, 8, 6, 5, 1, 21, 20, 20, 20, 19, 18, 18, 17, 17, 6, 6, 6, 6, 5, 5, 4, 4, 4, 30, 29, 29, 29, 29, 29, 29, 29, 29, 9, 9, 9, 9, 9, 9, 9, 9, 9, 6, 6, 6, 6, 6, 5, 5, 5, 5, 17, 16, 16, 15, 14, 13, 11, 11, 10, 12, 12, 11, 10, 9, 7, 7, 5, 4, 18, 16, 16, 15, 12, 11, 10, 8, 8, 23, 20, 16, 14, 12, 9, 8, 5, 4, 21, 19, 19, 19, 18, 17, 17, 16, 16, 3, 2, 2, 2, 2, 2, 2, 2, 2, 25, 21, 20, 18, 17, 15, 11, 11, 9, 30, 27, 25, 22, 22, 19, 18, 15, 15, 28, 24, 22, 18, 16, 13, 7, 4, 1, 15, 14, 13, 12, 8, 8, 7, 5, 2, 13, 11, 10, 9, 8, 6, 5, 5, 4, 14, 14, 14, 13, 13, 13, 13, 12, 12, 19, 18, 18, 16, 15, 14, 13, 13, 12, 24, 22, 21, 19, 18, 17, 17, 16, 14, 3, 3, 3, 3, 3, 2, 2, 2, 2
 |26, 22, 21, 17, 16, 12, 10, 9, 4, 23, 21, 20, 17, 17, 14, 13, 11, 10, 20, 17, 16, 14, 13, 10, 8, 6, 4, 12, 10, 10, 9, 8, 7, 6, 6, 5, 24, 22, 21, 19, 19, 17, 15, 15, 13, 25, 20, 17, 16, 13, 10, 8, 7, 3, 19, 18, 15, 14, 13, 10, 9, 8, 7, 6, 6, 6, 6, 6, 6, 6, 6, 6, 22, 20, 17, 16, 16, 14, 13, 11, 10, 16, 15, 15, 15, 14, 14, 14, 13, 13, 9, 9, 8, 6, 6, 5, 4, 4, 3, 26, 23, 19, 18, 17, 15, 13, 10, 8, 21, 21, 21, 21, 21, 21, 21, 21, 21, 6, 6, 6, 6, 6, 5, 5, 5, 5, 20, 18, 17, 14, 13, 9, 8, 5, 5, 18, 17, 17, 17, 16, 16, 15, 15, 14, 20, 16, 15, 12, 11, 11, 8, 7, 4, 26, 25, 25, 23, 22, 21, 21, 19, 19, 16, 16, 14, 14, 13, 12, 11, 10, 9, 11, 9, 8, 8, 6, 5, 3, 3, 1, 5, 5, 5, 5, 4, 4, 4, 4, 4, 25, 22, 22, 20, 20, 18, 16, 15, 14, 11, 9, 8, 8, 7, 6, 5, 4, 3, 17, 16, 14, 11, 9, 7, 7, 5, 2, 21, 20, 20, 20, 20, 20, 20, 20, 20, 23, 21, 21, 20, 19, 19, 18, 16, 16, 27, 26, 22, 21, 19, 18, 15, 15, 12, 19, 18, 17, 17, 16, 16, 15, 14, 14, 18, 17, 15, 12, 9, 8, 6, 5, 2, 19, 17, 13, 13, 9, 7, 7, 5, 3, 24, 24, 22, 20, 16, 15, 12, 11, 9, 18, 16, 16, 12, 10, 8, 7, 4, 1, 12, 11, 10, 9, 7, 6, 4, 4, 2, 25, 24, 23, 23, 23, 22, 22, 21, 21, 28, 28, 28, 28, 27, 27, 27, 27, 27, 27, 26, 25, 24, 21, 20, 17, 16, 15, 21, 17, 17, 14, 13, 12, 10, 9, 7, 26, 26, 26, 26, 25, 25, 25, 25, 25, 29, 26, 21, 19, 17, 12, 10, 5, 2, 24, 23, 23, 23, 22, 21, 21, 20, 20, 30, 29, 28, 28, 28, 27, 26, 26, 26, 30, 28, 28, 26, 26, 24, 23, 22, 22, 13, 12, 12, 12, 12, 12, 12, 12, 12, 23, 23, 23, 23, 23, 23, 23, 23, 23, 15, 14, 13, 12, 10, 8, 6, 5, 3, 15, 13, 13, 12, 10, 9, 8, 8, 7, 28, 27, 27, 27, 27, 26, 26, 26, 26, 21, 18, 16, 14, 12, 11, 10, 8, 6, 20, 20, 18, 17, 17, 15, 15, 14, 13, 26, 23, 22, 17, 15, 10, 7, 5, 3
 |28, 27, 27, 27, 27, 27, 27, 27, 27, 22, 19, 16, 16, 12, 10, 6, 6, 3, 14, 13, 13, 13, 13, 12, 12, 12, 12, 25, 21, 21, 20, 18, 17, 14, 14, 12, 16, 16, 16, 16, 15, 15, 15, 14, 14, 24, 20, 19, 17, 14, 9, 8, 6, 2, 26, 25, 24, 21, 21, 18, 18, 16, 14, 8, 7, 6, 6, 4, 4, 4, 2, 2, 10, 10, 10, 10, 10, 9, 9, 9, 9, 22, 20, 18, 18, 17, 16, 15, 13, 12, 22, 21, 20, 17, 16, 12, 12, 10, 6, 13, 12, 11, 11, 10, 9, 9, 8, 8, 18, 16, 15, 14, 13, 11, 11, 9, 8, 17, 15, 14, 13, 13, 12, 11, 10, 9, 21, 18, 16, 16, 12, 12, 10, 6, 5, 18, 15, 13, 13, 9, 7, 7, 4, 1, 27, 26, 26, 26, 26, 25, 25, 25, 25, 29, 26, 22, 20, 19, 17, 14, 12, 10, 27, 24, 20, 20, 18, 13, 11, 10, 6, 28, 28, 25, 24, 22, 19, 18, 16, 14, 9, 8, 8, 8, 8, 8, 8, 8, 8, 20, 19, 19, 19, 19, 19, 19, 19, 19, 20, 19, 17, 16, 13, 12, 10, 6, 6, 26, 25, 25, 25, 24, 23, 23, 22, 21, 15, 13, 12, 11, 10, 7, 7, 4, 3, 14, 13, 13, 12, 12, 12, 12, 11, 11, 9, 9, 9, 8, 8, 8, 7, 7, 7, 16, 15, 14, 12, 12, 10, 10, 8, 8, 14, 14, 14, 13, 12, 12, 12, 11, 11, 15, 14, 13, 11, 9, 8, 8, 6, 4, 10, 9, 8, 6, 6, 5, 5, 3, 3, 14, 13, 12, 12, 10, 10, 10, 8, 8, 28, 25, 22, 19, 13, 13, 7, 4, 3, 18, 14, 14, 11, 10, 8, 5, 5, 3, 10, 10, 10, 10, 10, 10, 10, 10, 10, 12, 10, 9, 8, 6, 6, 5, 3, 3, 29, 24, 22, 20, 15, 14, 11, 5, 2, 10, 10, 9, 9, 8, 7, 7, 6, 6, 11, 10, 9, 9, 8, 8, 7, 5, 5, 25, 23, 21, 18, 16, 13, 11, 11, 7, 16, 15, 11, 9, 8, 8, 6, 4, 1, 27, 25, 23, 23, 20, 19, 18, 17, 16, 29, 26, 25, 22, 19, 19, 15, 15, 13, 16, 14, 11, 11, 7, 7, 5, 2, 1, 10, 8, 8, 8, 7, 7, 6, 5, 5, 16, 15, 14, 12, 12, 11, 9, 9, 8, 9, 9, 9, 8, 8, 7, 6, 6, 6, 6, 5, 5, 5, 5, 5, 5, 5, 5, 3, 3, 3, 3, 3, 3, 3, 3, 3, 27, 22, 19, 15, 13, 10, 6, 6, 1
 |21, 18, 17, 15, 11, 10, 9, 5, 5, 26, 25, 24, 24, 23, 22, 22, 20, 20, 28, 26, 24, 24, 22, 19, 19, 18, 16, 27, 24, 22, 18, 17, 15, 13, 10, 7, 25, 23, 22, 21, 20, 19, 19, 18, 16, 28, 28, 28, 28, 27, 27, 27, 27, 27, 15, 13, 13, 11, 11, 10, 9, 8, 6, 5, 5, 5, 4, 4, 3, 3, 2, 2, 20, 19, 17, 16, 14, 14, 11, 10, 9, 9, 8, 8, 7, 6, 6, 5, 4, 4, 16, 16, 16, 16, 16, 16, 16, 16, 16, 15, 14, 14, 13, 13, 13, 12, 12, 11, 29, 26, 25, 22, 21, 18, 17, 15, 14, 9, 8, 6, 6, 4, 4, 2, 2, 1, 27, 24, 19, 16, 13, 10, 9, 7, 3, 3, 2, 2, 2, 1, 1, 1, 1, 1, 23, 20, 17, 16, 13, 12, 8, 6, 6, 28, 23, 21, 19, 16, 14, 13, 11, 10, 6, 6, 5, 4, 4, 4, 3, 3, 2, 23, 22, 20, 20, 19, 17, 17, 15, 15, 14, 12, 12, 9, 7, 6, 4, 3, 2, 18, 17, 16, 15, 14, 12, 10, 10, 9, 23, 19, 18, 17, 14, 11, 9, 8, 4, 26, 24, 23, 19, 19, 14, 13, 10, 10, 24, 24, 23, 21, 20, 20, 19, 17, 17, 20, 19, 18, 16, 14, 11, 8, 6, 5, 21, 21, 21, 20, 20, 20, 20, 19, 19, 24, 23, 22, 22, 21, 19, 18, 17, 17, 21, 20, 18, 17, 16, 15, 15, 14, 13, 21, 21, 21, 21, 21, 21, 21, 21, 21, 26, 26, 25, 23, 23, 23, 22, 20, 20, 10, 10, 10, 9, 8, 8, 7, 7, 7, 21, 21, 21, 21, 20, 20, 20, 20, 20, 28, 25, 24, 22, 20, 18, 16, 14, 12, 18, 16, 16, 13, 12, 10, 9, 7, 7, 11, 10, 9, 7, 7, 7, 5, 5, 4, 23, 22, 21, 20, 19, 19, 18, 18, 17, 17, 13, 12, 10, 10, 9, 7, 6, 3, 29, 29, 29, 28, 28, 27, 27, 26, 26, 27, 23, 22, 21, 18, 16, 13, 8, 8, 23, 18, 18, 13, 11, 8, 5, 4, 3, 15, 14, 12, 11, 11, 10, 8, 7, 7, 21, 19, 19, 17, 16, 14, 14, 12, 10, 13, 13, 13, 13, 13, 13, 13, 13, 13, 22, 18, 16, 15, 11, 10, 7, 3, 1, 28, 27, 27, 26, 26, 25, 25, 25, 24, 23, 20, 19, 17, 15, 13, 10, 9, 7, 15, 15, 15, 15, 15, 15, 15, 15, 15, 20, 19, 18, 18, 17, 17, 16, 15, 15, 8, 7, 7, 6, 6, 5, 5, 4, 4
 |19, 18, 18, 16, 15, 15, 13, 13, 11, 22, 21, 20, 19, 18, 16, 15, 15, 14, 7, 7, 7, 7, 7, 7, 7, 7, 7, 5, 5, 5, 5, 5, 5, 5, 5, 5, 28, 28, 28, 28, 27, 27, 27, 27, 27, 19, 18, 18, 18, 17, 17, 17, 17, 17, 25, 22, 21, 19, 17, 17, 15, 13, 12, 28, 25, 24, 22, 20, 19, 17, 16, 15, 26, 24, 22, 20, 20, 17, 16, 14, 11, 14, 13, 13, 11, 10, 9, 8, 7, 6, 25, 24, 23, 23, 22, 22, 21, 21, 21, 20, 20, 19, 17, 17, 16, 15, 14, 13, 14, 12, 12, 11, 9, 7, 7, 5, 5, 22, 20, 20, 16, 14, 13, 12, 9, 7, 27, 24, 24, 21, 16, 14, 12, 7, 6, 25, 24, 21, 17, 15, 11, 7, 5, 1, 29, 28, 28, 28, 28, 27, 27, 27, 27, 9, 8, 8, 7, 6, 6, 5, 4, 4, 23, 22, 21, 19, 19, 18, 17, 14, 13, 23, 21, 21, 19, 17, 16, 14, 13, 12, 17, 17, 15, 13, 12, 10, 10, 8, 6, 30, 26, 24, 20, 18, 16, 10, 7, 7, 9, 8, 8, 6, 6, 4, 3, 3, 1, 28, 26, 26, 24, 22, 21, 20, 18, 18, 12, 12, 12, 11, 11, 11, 10, 10, 10, 19, 18, 17, 15, 15, 15, 13, 12, 12, 22, 20, 18, 17, 14, 14, 10, 8, 7, 11, 10, 10, 9, 9, 9, 8, 7, 7, 30, 28, 27, 27, 25, 24, 24, 22, 21, 14, 14, 14, 14, 14, 14, 14, 14, 14, 25, 23, 21, 18, 17, 16, 15, 13, 11, 25, 24, 23, 22, 22, 21, 20, 20, 19, 26, 24, 22, 19, 16, 16, 12, 11, 9, 19, 17, 17, 16, 16, 16, 15, 14, 14, 3, 3, 3, 3, 2, 2, 2, 1, 1, 28, 27, 27, 27, 26, 26, 26, 26, 26, 28, 26, 24, 21, 19, 18, 16, 13, 11, 5, 4, 4, 3, 3, 2, 2, 1, 1, 26, 24, 22, 16, 16, 12, 7, 7, 2, 27, 24, 21, 19, 16, 15, 13, 10, 9, 15, 14, 12, 11, 11, 10, 8, 8, 7, 27, 24, 24, 22, 19, 19, 17, 15, 13, 23, 23, 23, 23, 23, 23, 23, 23, 23, 26, 24, 24, 23, 21, 20, 19, 19, 18, 24, 20, 20, 18, 13, 10, 8, 6, 4, 17, 14, 13, 13, 12, 9, 9, 7, 7, 26, 23, 22, 20, 19, 19, 17, 14, 14, 27, 24, 22, 20, 18, 16, 14, 9, 9, 30, 29, 29, 29, 29, 29, 29, 29, 29, 16, 14, 12, 9, 9, 6, 5, 3, 2
 |28, 26, 25, 22, 21, 19, 17, 17, 15, 10, 8, 8, 7, 5, 4, 4, 2, 1, 9, 8, 6, 6, 5, 4, 2, 2, 1, 24, 24, 23, 22, 21, 21, 20, 19, 19, 18, 14, 13, 12, 10, 10, 8, 5, 4, 30, 28, 26, 25, 25, 22, 22, 21, 20, 9, 8, 7, 7, 6, 6, 5, 4, 4, 19, 19, 19, 19, 18, 18, 18, 18, 18, 12, 12, 12, 12, 12, 12, 12, 12, 12, 17, 16, 15, 13, 13, 10, 9, 9, 7, 15, 15, 14, 14, 13, 13, 12, 12, 11, 19, 19, 19, 19, 18, 18, 18, 18, 18, 5, 5, 5, 4, 4, 4, 4, 3, 3, 23, 21, 17, 15, 13, 11, 11, 9, 5, 18, 17, 16, 14, 12, 11, 10, 10, 8, 21, 20, 20, 20, 19, 18, 17, 17, 16, 27, 27, 27, 27, 26, 26, 26, 26, 26, 19, 18, 17, 17, 16, 15, 13, 12, 12, 11, 10, 9, 8, 8, 8, 7, 6, 6, 28, 26, 23, 23, 20, 19, 18, 17, 15, 26, 26, 24, 24, 21, 20, 18, 18, 16, 20, 19, 19, 19, 18, 18, 18, 18, 18, 11, 11, 10, 8, 8, 7, 5, 5, 4, 28, 28, 28, 27, 27, 27, 27, 26, 26, 29, 29, 28, 27, 27, 26, 26, 25, 25, 3, 2, 2, 2, 1, 1, 1, 1, 1, 21, 16, 14, 12, 9, 9, 5, 5, 1, 24, 19, 17, 17, 13, 10, 8, 4, 4, 4, 3, 3, 3, 2, 2, 1, 1, 1, 4, 4, 4, 4, 3, 3, 3, 3, 3, 8, 7, 7, 5, 4, 4, 2, 2, 1, 22, 22, 21, 20, 19, 19, 19, 18, 17, 10, 10, 10, 9, 9, 9, 9, 8, 8, 15, 15, 12, 12, 9, 9, 6, 5, 5, 21, 19, 19, 18, 17, 17, 16, 16, 15, 18, 17, 13, 13, 10, 7, 5, 4, 3, 24, 23, 23, 23, 23, 23, 23, 23, 23, 28, 26, 22, 21, 17, 13, 10, 7, 5, 23, 19, 17, 16, 12, 10, 10, 8, 6, 16, 15, 14, 14, 13, 12, 12, 10, 10, 19, 19, 19, 19, 19, 18, 18, 18, 18, 18, 18, 16, 14, 13, 12, 10, 9, 8, 25, 22, 21, 18, 16, 15, 12, 11, 10, 10, 9, 9, 9, 9, 8, 8, 8, 8, 15, 13, 13, 12, 12, 12, 11, 10, 10, 21, 19, 16, 13, 11, 10, 5, 5, 3, 26, 24, 24, 22, 18, 17, 14, 12, 8, 25, 24, 24, 23, 22, 22, 20, 19, 19, 25, 22, 21, 17, 15, 13, 11, 11, 7, 23, 23, 20, 18, 17, 13, 12, 9, 9
 |25, 25, 25, 25, 25, 24, 24, 24, 24, 25, 22, 20, 15, 13, 9, 6, 4, 2, 21, 20, 20, 19, 18, 17, 16, 14, 14, 11, 10, 10, 10, 10, 10, 10, 10, 10, 26, 25, 24, 23, 20, 19, 19, 16, 15, 20, 19, 18, 18, 17, 17, 16, 16, 16, 24, 24, 23, 21, 20, 19, 19, 18, 17, 19, 19, 19, 19, 19, 19, 19, 19, 19, 11, 10, 10, 9, 8, 7, 7, 6, 5, 29, 29, 29, 29, 29, 28, 28, 28, 28, 27, 26, 25, 25, 23, 23, 22, 22, 21, 27, 26, 26, 26, 25, 25, 24, 24, 24, 21, 19, 18, 18, 17, 16, 15, 13, 13, 25, 24, 23, 23, 22, 21, 21, 20, 20, 25, 24, 24, 24, 23, 23, 23, 23, 23, 20, 20, 20, 19, 19, 19, 18, 18, 18, 29, 27, 27, 27, 26, 26, 25, 25, 24, 17, 16, 16, 16, 16, 16, 16, 16, 16, 28, 28, 28, 28, 28, 28, 28, 28, 28, 9, 9, 9, 9, 9, 8, 8, 8, 8, 21, 20, 20, 20, 19, 19, 18, 18, 18, 27, 26, 25, 24, 21, 19, 19, 16, 14, 29, 29, 28, 27, 27, 26, 25, 25, 24, 23, 21, 18, 17, 13, 11, 7, 5, 3, 28, 27, 26, 25, 24, 23, 23, 21, 21, 4, 3, 3, 3, 2, 2, 2, 2, 2, 20, 20, 17, 17, 15, 12, 11, 10, 8, 29, 27, 27, 26, 24, 23, 21, 20, 20, 11, 10, 9, 8, 8, 8, 6, 6, 5, 11, 10, 10, 9, 9, 8, 7, 7, 7, 22, 22, 21, 19, 18, 17, 17, 15, 15, 29, 27, 27, 26, 26, 25, 25, 25, 24, 18, 17, 14, 13, 11, 8, 7, 3, 2, 27, 26, 26, 26, 26, 26, 26, 26, 26, 28, 28, 28, 28, 27, 27, 26, 26, 26, 19, 18, 18, 17, 17, 16, 15, 15, 15, 26, 25, 25, 25, 24, 24, 23, 23, 23, 25, 25, 23, 21, 20, 20, 17, 16, 15, 15, 14, 14, 13, 13, 12, 12, 11, 10, 25, 23, 20, 18, 18, 16, 14, 13, 11, 21, 21, 21, 21, 20, 20, 20, 20, 20, 3, 3, 3, 3, 3, 3, 3, 3, 3, 21, 19, 17, 13, 11, 9, 9, 5, 5, 26, 23, 22, 19, 14, 14, 9, 5, 5, 23, 21, 20, 19, 18, 16, 14, 14, 12, 18, 15, 12, 10, 8, 6, 4, 3, 2, 26, 23, 21, 19, 13, 11, 8, 6, 2, 25, 24, 24, 23, 21, 20, 20, 19, 18, 6, 6, 6, 6, 6, 6, 6, 6, 6, 26, 25, 22, 20, 15, 12, 11, 8, 2|];